/*********************************************
 * OPL 12.7.1.0 Data
 * Author: anthonyn
 * Creation Date: Jan 2, 2018 at 6:09:58 PM
 *********************************************/
 
// A
 numNurses = 30;
 hours =  9;
 demand = [ 5 3 8 5 1 7 5 6 2 ];
 minHours = 3;
 maxHours = 6;
 maxConsec = 7;
 
 // B
 maxPresence = 8;
  